W20
1.0
   7.0771551487868356    0.0000000000000000    0.0000000000000004
  -0.0000000000000009   14.1543102975736694    0.0000000000000009
   0.0000000000000000    0.0000000000000000    3.1650000000000005
W
20
direct
   0.0000000000000000    0.0000000000000000    0.0000000000000000 W
   0.4000000000000000    0.1000000000000000    0.0000000000000000 W
   0.2000000000000000    0.2999999999999999    0.0000000000000000 W
   0.8000000000000000    0.2000000000000000    0.0000000000000000 W
   0.6000000000000003    0.4000000000000000    0.0000000000000000 W
   0.1000000000000000    0.1500000000000000    0.5000000000000000 W
   0.5000000000000000    0.2499999999999999    0.5000000000000000 W
   0.3000000000000000    0.4500000000000001    0.5000000000000000 W
   0.9000000000000002    0.3499999999999999    0.5000000000000000 W
   0.7000000000000001    0.0500000000000000    0.5000000000000000 W
   0.0000000000000001    0.4999999999999999   -0.0000000000000001 W
   0.4000000000000001    0.8999999999999999   -0.0000000000000001 W
   0.2000000000000000    0.7000000000000000    0.0000000000000000 W
   0.8000000000000002    0.7999999999999999   -0.0000000000000001 W
   0.6000000000000004    0.5999999999999999   -0.0000000000000000 W
   0.1000000000000000    0.8500000000000000    0.5000000000000001 W
   0.5000000000000001    0.7500000000000001    0.5000000000000001 W
   0.2999999999999999    0.5500000000000000    0.5000000000000003 W
   0.9000000000000004    0.6500000000000000    0.5000000000000000 W
   0.7000000000000002    0.9499999999999997    0.4999999999999998 W
