# BCC(001) cell with dimension 1 x 1 x 1 and a = 3.165
    3.16500000000000
    1.00000000000000      0.00000000000000      0.00000000000000
    0.00000000000000      1.00000000000000      0.00000000000000
    0.00000000000000      0.00000000000000      1.00000000000000
    W 
     2
direct
    0.00000000000000      0.00000000000000      0.00000000000000
    0.50000000000000      0.50000000000000      0.50000000000000
