# Dia-prim cell with dimension 1 x 1 x 1 and a = 5.39
    3.81130555059549
    0.00000000000000      0.70710678118655      0.70710678118655
    0.70710678118655      0.00000000000000      0.70710678118655
    0.70710678118655      0.70710678118655      0.00000000000000
    Si
     2
direct
    0.00000000000000      0.00000000000000      0.00000000000000
    0.25000000000000      0.25000000000000      0.25000000000000
