# Diamond(001) cell with dimension 1 x 1 x 1 and a = 5.39
    5.39000000000000
    1.00000000000000      0.00000000000000      0.00000000000000
    0.00000000000000      1.00000000000000      0.00000000000000
    0.00000000000000      0.00000000000000      1.00000000000000
    Si
     8
direct
    0.00000000000000      0.00000000000000      0.00000000000000
    0.50000000000000      0.50000000000000      0.00000000000000
    0.25000000000000      0.25000000000000      0.25000000000000
    0.75000000000000      0.75000000000000      0.25000000000000
    0.50000000000000      0.00000000000000      0.50000000000000
    0.00000000000000      0.50000000000000      0.50000000000000
    0.75000000000000      0.25000000000000      0.75000000000000
    0.25000000000000      0.75000000000000      0.75000000000000
