generated by phonopy
   1.0
    10.7799999999999994    0.0000000000000000    0.0000000000000000
     0.0000000000000000   10.7799999999999994    0.0000000000000000
     0.0000000000000000    0.0000000000000000   10.7799999999999994
Si
  64
Direct
  0.0009276437847866  0.0000000000000000  0.0000000000000000
  0.5000000000000000  0.0000000000000000  0.0000000000000000
  0.0000000000000000  0.5000000000000000  0.0000000000000000
  0.5000000000000000  0.5000000000000000  0.0000000000000000
  0.0000000000000000  0.0000000000000000  0.5000000000000000
  0.5000000000000000  0.0000000000000000  0.5000000000000000
  0.0000000000000000  0.5000000000000000  0.5000000000000000
  0.5000000000000000  0.5000000000000000  0.5000000000000000
  0.2500000000000000  0.2500000000000000  0.0000000000000000
  0.7500000000000000  0.2500000000000000  0.0000000000000000
  0.2500000000000000  0.7500000000000000  0.0000000000000000
  0.7500000000000000  0.7500000000000000  0.0000000000000000
  0.2500000000000000  0.2500000000000000  0.5000000000000000
  0.7500000000000000  0.2500000000000000  0.5000000000000000
  0.2500000000000000  0.7500000000000000  0.5000000000000000
  0.7500000000000000  0.7500000000000000  0.5000000000000000
  0.1250000000000000  0.1250000000000000  0.1250000000000000
  0.6250000000000000  0.1250000000000000  0.1250000000000000
  0.1250000000000000  0.6250000000000000  0.1250000000000000
  0.6250000000000000  0.6250000000000000  0.1250000000000000
  0.1250000000000000  0.1250000000000000  0.6250000000000000
  0.6250000000000000  0.1250000000000000  0.6250000000000000
  0.1250000000000000  0.6250000000000000  0.6250000000000000
  0.6250000000000000  0.6250000000000000  0.6250000000000000
  0.3750000000000000  0.3750000000000000  0.1250000000000000
  0.8750000000000000  0.3750000000000000  0.1250000000000000
  0.3750000000000000  0.8750000000000000  0.1250000000000000
  0.8750000000000000  0.8750000000000000  0.1250000000000000
  0.3750000000000000  0.3750000000000000  0.6250000000000000
  0.8750000000000000  0.3750000000000000  0.6250000000000000
  0.3750000000000000  0.8750000000000000  0.6250000000000000
  0.8750000000000000  0.8750000000000000  0.6250000000000000
  0.2500000000000000  0.0000000000000000  0.2500000000000000
  0.7500000000000000  0.0000000000000000  0.2500000000000000
  0.2500000000000000  0.5000000000000000  0.2500000000000000
  0.7500000000000000  0.5000000000000000  0.2500000000000000
  0.2500000000000000  0.0000000000000000  0.7500000000000000
  0.7500000000000000  0.0000000000000000  0.7500000000000000
  0.2500000000000000  0.5000000000000000  0.7500000000000000
  0.7500000000000000  0.5000000000000000  0.7500000000000000
  0.0000000000000000  0.2500000000000000  0.2500000000000000
  0.5000000000000000  0.2500000000000000  0.2500000000000000
  0.0000000000000000  0.7500000000000000  0.2500000000000000
  0.5000000000000000  0.7500000000000000  0.2500000000000000
  0.0000000000000000  0.2500000000000000  0.7500000000000000
  0.5000000000000000  0.2500000000000000  0.7500000000000000
  0.0000000000000000  0.7500000000000000  0.7500000000000000
  0.5000000000000000  0.7500000000000000  0.7500000000000000
  0.3750000000000000  0.1250000000000000  0.3750000000000000
  0.8750000000000000  0.1250000000000000  0.3750000000000000
  0.3750000000000000  0.6250000000000000  0.3750000000000000
  0.8750000000000000  0.6250000000000000  0.3750000000000000
  0.3750000000000000  0.1250000000000000  0.8750000000000000
  0.8750000000000000  0.1250000000000000  0.8750000000000000
  0.3750000000000000  0.6250000000000000  0.8750000000000000
  0.8750000000000000  0.6250000000000000  0.8750000000000000
  0.1250000000000000  0.3750000000000000  0.3750000000000000
  0.6250000000000000  0.3750000000000000  0.3750000000000000
  0.1250000000000000  0.8750000000000000  0.3750000000000000
  0.6250000000000000  0.8750000000000000  0.3750000000000000
  0.1250000000000000  0.3750000000000000  0.8750000000000000
  0.6250000000000000  0.3750000000000000  0.8750000000000000
  0.1250000000000000  0.8750000000000000  0.8750000000000000
  0.6250000000000000  0.8750000000000000  0.8750000000000000
