generated by phonopy                    
   1.00000000000000     
     0.0000000000000000    5.4661988437747855    5.4661988437747855
     5.4661988437747855    0.0000000000000000    5.4661988437747855
     5.4661988437747855    5.4661988437747855    0.0000000000000000
   Si
    16
Direct
  0.4387935987171261  0.4375000000000000  0.4375000000000000
  0.9375000000000000  0.4375000000000000  0.4375000000000000
  0.4375000000000000  0.9375000000000000  0.4375000000000000
  0.9375000000000000  0.9375000000000000  0.4375000000000000
  0.4375000000000000  0.4375000000000000  0.9375000000000000
  0.9375000000000000  0.4375000000000000  0.9375000000000000
  0.4375000000000000  0.9375000000000000  0.9375000000000000
  0.9375000000000000  0.9375000000000000  0.9375000000000000
  0.0625000000000000  0.0625000000000000  0.0625000000000000
  0.5625000000000000  0.0625000000000000  0.0625000000000000
  0.0625000000000000  0.5625000000000000  0.0625000000000000
  0.5625000000000000  0.5625000000000000  0.0625000000000000
  0.0625000000000000  0.0625000000000000  0.5625000000000000
  0.5625000000000000  0.0625000000000000  0.5625000000000000
  0.0625000000000000  0.5625000000000000  0.5625000000000000
  0.5625000000000000  0.5625000000000000  0.5625000000000000
 
  0.00000000E+00  0.00000000E+00  0.00000000E+00
  0.00000000E+00  0.00000000E+00  0.00000000E+00
  0.00000000E+00  0.00000000E+00  0.00000000E+00
  0.00000000E+00  0.00000000E+00  0.00000000E+00
  0.00000000E+00  0.00000000E+00  0.00000000E+00
  0.00000000E+00  0.00000000E+00  0.00000000E+00
  0.00000000E+00  0.00000000E+00  0.00000000E+00
  0.00000000E+00  0.00000000E+00  0.00000000E+00
  0.00000000E+00  0.00000000E+00  0.00000000E+00
  0.00000000E+00  0.00000000E+00  0.00000000E+00
  0.00000000E+00  0.00000000E+00  0.00000000E+00
  0.00000000E+00  0.00000000E+00  0.00000000E+00
  0.00000000E+00  0.00000000E+00  0.00000000E+00
  0.00000000E+00  0.00000000E+00  0.00000000E+00
  0.00000000E+00  0.00000000E+00  0.00000000E+00
  0.00000000E+00  0.00000000E+00  0.00000000E+00
